62 64 67 68 70 71 72 73 75 78 79 81 84 84 89 92 93 95 95 96 97 99 101 102 103 104 105 106 109 111 111 115 115 119 119 120 129 135 136 137 138 138 138 139 139 141 141 144 145 148 149 154 154 160 160 165 167 168 169 176 182 184 187 188 190 191 192 193 195 198 199 201 204 204 209 212 213 215 215 216 217 219 221 222 223 224 225 226 229 231 231 235 235 239 239 240 249 255 256 257 258 258 258 259 259 261 261 264 265 268 269 274 274 280 280 285 287 288 289 296 302 304 307 308 310 311 312 313 315 318 319 321 324 324 329 332 333 335 335 336 337 339 341 342 343 344 345 346 349 351 351 355 355 359 359 360 369 375 376 377 378 378 378 379 379 381 381 384 385 388 389 394 394 400 400 405 407 408 409 416 422 424 427 428 430 431 432 433 435 438 439 441 444 444 449 452 453 455 455 456 457 459 461 462 463 464 465 466 469 471 471 475 475 479 479 480 489 495 496 497 498 498 498 499 499 501 501 504 505 508 509 514 514 520 520 525 527 528 529 536